% demand
num_movements = 46;
loading_factor = [1250, 1000, 1500, 1700, 1050, 1800, 2000, 1150, 1200, 1400, 1500, 2000, 1550, 1500, 1950, 1200, 1750, 1050, 1000, 1850, 1500, 1950, 1900, 1950, 1200, 1700, 1150, 1900, 1650, 1950, 1800, 950, 850, 1850, 1400, 900, 2000, 1850, 1900, 850, 1900, 900, 1500, 1300, 2000, 1000];
pickup_time = [0, 0, 0, 0, 0, 0, 0, 1, 1, 1, 1, 2, 2, 2, 2, 2, 2, 2, 3, 3, 3, 4, 5, 5, 5, 5, 5, 7, 9, 9, 9, 9, 9, 9, 9, 10, 10, 10, 10, 10, 11, 11, 11, 11, 11, 11];
delivery_time = [2, 2, 2, 1, 1, 1, 1, 2, 2, 2, 2, 3, 3, 3, 3, 4, 4, 3, 9, 4, 4, 8, 9, 7, 9, 8, 9, 9, 12, 10, 10, 10, 10, 11, 10, 11, 11, 11, 11, 11, 12, 12, 12, 12, 12, 12];

% transporter definition
total_capacity = 11000;
num_decks = 4;
capacity = [3000, 3000, 1000, 4000];

% ways out of decks
num_ways_out = 2;
paths_out = array3d(decks, ways_out, decks, [
% ways out of deck d1
2, 4, 0, 0, 3, 4, 0, 0, 

% ways out of deck d2
4, 0, 0, 0, 0, 0, 0, 0,	

% ways out of deck d3
4, 0, 0, 0, 0, 0, 0, 0,	

% ways out of deck d4
0, 0, 0, 0,	0, 0, 0, 0,	

]);

